c read Graph
c width = 62
c time = 480 ms
c width = 5
c time = 631 ms
c width = 5
c time = 4102 ms
s td 71 6 75
b 1 1 2 16
b 2 2 3 16 17
b 3 13 14 29 30
b 4 3 16 17 31
b 5 13 29 30 45
b 6 31 46 47 62
b 7 45 59 60 74
b 8 31 47 62 63
b 9 45 59 73 74
b 10 3 4 5 19
b 11 5 6 7 21
b 12 7 8 9 23
b 13 9 10 11 25
b 14 11 12 13 27
b 15 3 17 18 31 32
b 16 13 28 29 44 45
b 17 31 32 47 48 63
b 18 44 45 58 59 73
b 19 31 32 48 63 64
b 20 50 64 65 66
b 21 52 66 67 68
b 22 54 68 69 70
b 23 56 70 71 72
b 24 44 45 58 72 73
b 25 5 19 20 21 35
b 26 7 21 22 23 37
b 27 9 23 24 25 39
b 28 11 25 26 27 41
b 29 3 18 31 32 48 64
b 30 3 18 32 33 48 64
b 31 3 18 19 33 48 64
b 32 3 5 19 33 48 64
b 33 5 19 33 34 48 64
b 34 5 19 34 48 49 64
b 35 5 19 34 35 49 64
b 36 5 19 21 35 49 64
b 37 5 21 35 49 50 64
b 38 5 7 21 35 50 64
b 39 7 21 35 36 50 64
b 40 36 50 51 52 66
b 41 7 21 36 50 64 66
b 42 7 21 36 50 52 66
b 43 7 21 36 37 52 66
b 44 7 21 23 37 52 66
b 45 7 9 23 37 52 66
b 46 9 23 37 38 52 66
b 47 38 52 53 54 68
b 48 9 23 38 52 66 68
b 49 9 23 38 52 54 68
b 50 9 23 38 39 54 68
b 51 9 23 25 39 54 68
b 52 9 11 25 39 54 68
b 53 11 25 39 40 54 68
b 54 40 54 55 56 70
b 55 11 25 40 54 68 70
b 56 11 25 40 54 56 70
b 57 11 25 40 41 56 70
b 58 11 25 27 41 56 70
b 59 11 13 27 41 56 70
b 60 13 27 41 42 56 70
b 61 13 27 28 42 56 70
b 62 28 42 43 44 58
b 63 42 56 57 58 72
b 64 13 28 42 56 70 72
b 65 13 28 44 45 58 72
b 66 13 28 42 44 58 72
b 67 13 28 42 56 58 72
b 68 42 56 58 72
b 69 60 74 75
b 70 46 61 62
b 71 14 15 30
1 2
2 4
3 71
3 5
4 15
5 16
6 70
6 8
7 69
7 9
8 17
9 18
10 32
11 38
12 45
13 52
14 59
15 29
16 65
17 19
18 24
19 29
20 41
21 48
22 55
23 64
24 65
25 36
26 44
27 51
28 58
29 30
30 31
31 32
32 33
33 34
34 35
35 36
36 37
37 38
38 39
39 41
40 42
41 42
42 43
43 44
44 45
45 46
46 48
47 49
48 49
49 50
50 51
51 52
52 53
53 55
54 56
55 56
56 57
57 58
58 59
59 60
60 61
61 64
62 66
63 68
64 67
65 66
66 67
67 68
